NAME: uk-teams-n92
COMMENT: Generated by Graham Kendall, Geoffrey De Smet, Nasser Sabar and Angelina Yee.
TYPE: TSP
DIMENSION: 92
EDGE_WEIGHT_TYPE: EUC_2D
NODE_COORD_SECTION
0 52.4756 -1.8682 Birmingham_City_(BIR)
1 53.7286 -2.4894 Blackburn_Rovers_(BLR)
2 53.8046 -3.0483 Blackpool_(BLA)
3 53.5805 -2.5357 Bolton_Wanderers_(BOL)
4 50.7352 -1.8384 Bournemouth_(BOU)
5 51.4882 -0.3026 Brentford_(BRC)
6 50.8609 -0.0801 Brighton_and_Hove_Albion_(BHA)
7 51.4729 -3.2041 Cardiff_City_(CAR)
8 51.4865 0.0368 Charlton_Athletic_(CHA)
9 52.9149 -1.4473 Derby_County_(DER)
10 51.4749 -0.2216 Fulham_(FUL)
11 53.6543 -1.7684 Huddersfield_Town_(HUD)
12 52.0544 1.1455 Ipswich_Town_(IPS)
13 53.7775 -1.5721 Leeds_United_(LEE)
14 54.5781 -1.2178 Middlesbrough__(MID)
15 51.4859 -0.0507 Millwall_(MIL)
16 52.6221 1.3091 Norwich_City_(NOR)
17 52.9399 -1.1326 Nottingham_Forest_(NOT)
18 51.4222 -0.9828 Reading_(REA)
19 53.4281 -1.3617 Rotherham_United_(ROT)
20 53.4115 -1.5008 Sheffield_Wednesday_(SHW)
21 51.6498 -0.4016 Watford_(WAT)
22 53.5477 -2.6542 Wigan_Athletic_(WIG)
23 52.5904 -2.1306 Wolverhampton_Wanderers_(WOL)
68 51.5549 -0.1084 Arsenal_(ARS)
69 52.5092 -1.8851 Aston_Villa_(AST)
70 53.7888 -2.2302 Burnley_(BUR)
71 51.4816 -0.191 Chelsea_(CHE)
72 51.3983 -0.0855 Crystal_Palace_(CRY)
73 53.4387 -2.9662 Everton_(EVE)
74 53.7465 -0.368 Hull_City_(HUL)
75 52.6203 -1.1422 Leicester_City_(LEI)
76 53.4308 -2.961 Liverpool_(LIV)
77 53.483 -2.2002 Manchester_City_(MNC)
78 53.4631 -2.2914 Manchester_United_(MNU)
79 54.9756 -1.6218 Newcastle_United_(NEU)
80 51.5093 -0.2322 Queens_Park_Rangers_(QPR)
81 50.9058 -1.3911 Southampton_(SOU)
82 52.9884 -2.1754 Stoke_City_(STO)
83 54.9146 -1.3884 Sunderland_(SUN)
84 51.6428 -3.9347 Swansea_City_(SWA)
85 51.6033 -0.0657 Tottenham_Hotspur_(TOT)
86 52.509 -1.9642 West_Bromwich_Albion_(WBA)
87 51.5321 0.0392 West_Ham_(WES)
88 53.5524 -1.4676 Barnsley_(BRN)
89 53.8042 -1.759 Bradford_City_(BDC)
90 51.44 -2.6202 Bristol_City_(BRI)
91 53.2535 -1.4272 Chesterfield_(CHT)
92 51.9234 0.8979 Colchester_United_(COL)
93 52.4481 -1.4956 Coventry_City_(COV)
94 51.0996 -0.1946 Crawley_Town_(CRA)
95 53.0875 -2.4357 Crewe_Alexandra_(CRE)
96 53.5099 -1.1138 Doncaster_Rovers_(DON)
97 53.9165 -3.0248 Fleetwood_Town_(FLE)
98 51.3844 0.5604 Gillingham_(GIL)
99 51.5601 -0.0126 Leyton_Orient_(LEY)
100 52.0096 -0.7335 MK_Dons_(MK_)
101 52.9425 -1.137 Notts_County_(NTC)
102 53.5551 -2.1285 Oldham_Athletic_(OLD)
103 52.5648 -0.2404 Peterborough_United_(PTU)
104 53.05 -2.1926 Port_Vale_(PVA)
105 53.772 -2.6883 Preston_North_End_(PRE)
106 53.6209 -2.1799 Rochdale_(ROC)
107 53.5867 -0.6952 Scunthorpe_United_(SCU)
108 53.3703 -1.4708 Sheffield_United_(SHU)
109 51.5645 -1.7711 Swindon_Town_(SWI)
110 52.5655 -1.9905 Walsall_(WAL)
111 50.9503 -2.6738 Yeovil_Town_(YEO)
112 53.7654 -2.3711 Accrington_Stanley_(ACC)
113 51.4051 -0.282 AFC_Wimbledon_(AFC)
114 52.8219 -1.6271 Burton_Albion_(BUA)
115 53.5805 -2.2949 Bury_(BRY)
116 52.2126 0.1543 Cambridge_United_(CAM)
117 54.8955 -2.9137 Carlisle_United_(CAU)
118 51.9062 -2.0602 Cheltenham_Town_(CHL)
119 51.5478 0.1597 Dagenham_and_Redbridge_(DAG)
120 50.7307 -3.5211 Exeter_City_(EXE)
121 54.6891 -1.2127 Hartlepool_United_(HAR)
122 51.884 -0.4316 Luton_Town_(LUT)
123 53.1377 -1.2013 Mansfield_Town_(MAN)
124 54.0675 -2.8471 Morecambe_(MOR)
125 51.5887 -2.9889 Newport_County_(NEW)
126 52.2352 -0.9335 Northampton_Town_(NRT)
127 51.7164 -1.2078 Oxford_United_(OXU)
128 50.3882 -4.1508 Plymouth_Argyle_(PLY)
129 50.7964 -1.0639 Portsmouth_(POR)
130 52.6886 -2.7493 Shrewsbury_Town_(SHR)
131 51.5491 0.7016 Southend_United_(STU)
132 51.8898 -0.1937 Stevenage_Borough_(STE)
133 53.3738 -3.0327 Tranmere_Rovers_(TRA)
134 51.6306 -0.8003 Wycombe_Wanderers_(WYC)
135 53.9695 -1.0883 York_City_(YOR)
EOF
